NAME : random766340
COMMENT: random generated with id 766340
TYPE : TSP
DIMENSION : 20
EDGE_WEIGHT_TYPE : EUC_2D
NODE_COORD_SECTION
1 18.420618 3.711088
2 12.915478 12.390698
3 14.753413 14.513846
4 9.291397 10.537666
5 6.824071 17.173731
6 7.255943 15.021106
7 3.208060 9.405296
8 6.770649 2.726383
9 0.995310 7.244357
10 5.161551 4.469256
11 18.112144 15.669792
12 8.231309 5.668737
13 6.274748 16.402293
14 16.929411 10.202371
15 14.565481 8.163722
16 3.889437 12.986099
17 11.874810 16.804915
18 5.376797 6.628223
19 11.318761 14.668194
20 17.165889 18.142832
EOF
